unknown
(model
; cardinality of BoundSet is 2
(declare-sort BoundSet 0)
; rep: @uc_BoundSet_0
; rep: @uc_BoundSet_1
; cardinality of UnboundSet is 1
(declare-sort UnboundSet 0)
(declare-fun groundTerm_3 () UnboundSet)
(define-fun IsAffectedByClimateChange ((BOUND_VARIABLE_413 BoundSet)) Bool true)
(define-fun IsWarmingUp ((BOUND_VARIABLE_413 BoundSet)) Bool true)
(define-fun IsRisingSeaLevels ((BOUND_VARIABLE_413 BoundSet)) Bool false)
(define-fun IsFormer ((BOUND_VARIABLE_413 BoundSet)) Bool false)
(define-fun EndorsesScenarioAnalysis ((BOUND_VARIABLE_413 BoundSet)) Bool false)
)
sat
(model
; cardinality of BoundSet is 1
(declare-sort BoundSet 0)
; rep: @uc_BoundSet_0
; cardinality of UnboundSet is 1
(declare-sort UnboundSet 0)
(declare-fun groundTerm_5 () UnboundSet)
(define-fun IsAffectedByClimateChange ((BOUND_VARIABLE_452 BoundSet)) Bool true)
(define-fun IsWarmingUp ((BOUND_VARIABLE_452 BoundSet)) Bool true)
(define-fun IsRisingSeaLevels ((BOUND_VARIABLE_452 BoundSet)) Bool false)
(define-fun IsFormer ((BOUND_VARIABLE_452 BoundSet)) Bool false)
(define-fun EndorsesScenarioAnalysis ((BOUND_VARIABLE_452 BoundSet)) Bool true)
)
